c generated by sgen
p cnf 49 108
-2 -3 -4 0
-1 -3 -4 0
-1 -2 -4 0
-1 -2 -3 0
-6 -7 -8 0
-5 -7 -8 0
-5 -6 -8 0
-5 -6 -7 0
-10 -11 -12 0
-9 -11 -12 0
-9 -10 -12 0
-9 -10 -11 0
-14 -15 -16 0
-13 -15 -16 0
-13 -14 -16 0
-13 -14 -15 0
-18 -19 -20 0
-17 -19 -20 0
-17 -18 -20 0
-17 -18 -19 0
-22 -23 -24 0
-21 -23 -24 0
-21 -22 -24 0
-21 -22 -23 0
-26 -27 -28 0
-25 -27 -28 0
-25 -26 -28 0
-25 -26 -27 0
-30 -31 -32 0
-29 -31 -32 0
-29 -30 -32 0
-29 -30 -31 0
-34 -35 -36 0
-33 -35 -36 0
-33 -34 -36 0
-33 -34 -35 0
-38 -39 -40 0
-37 -39 -40 0
-37 -38 -40 0
-37 -38 -39 0
-42 -43 -44 0
-41 -43 -44 0
-41 -42 -44 0
-41 -42 -43 0
-45 -46 -47 0
-45 -46 -48 0
-45 -46 -49 0
-45 -47 -48 0
-45 -47 -49 0
-45 -48 -49 0
-46 -47 -48 0
-46 -47 -49 0
-46 -48 -49 0
-47 -48 -49 0
4 25 17 0
40 25 17 0
40 4 17 0
40 4 25 0
18 16 7 0
41 16 7 0
41 18 7 0
41 18 16 0
31 6 47 0
2 6 47 0
2 31 47 0
2 31 6 0
24 38 11 0
5 38 11 0
5 24 11 0
5 24 38 0
30 45 14 0
39 45 14 0
39 30 14 0
39 30 45 0
19 22 35 0
29 22 35 0
29 19 35 0
29 19 22 0
43 27 46 0
23 27 46 0
23 43 46 0
23 43 27 0
3 9 13 0
21 9 13 0
21 3 13 0
21 3 9 0
20 33 12 0
48 33 12 0
48 20 12 0
48 20 33 0
26 36 8 0
15 36 8 0
15 26 8 0
15 26 36 0
44 32 10 0
28 32 10 0
28 44 10 0
28 44 32 0
49 42 37 0
49 42 1 0
49 42 34 0
49 37 1 0
49 37 34 0
49 1 34 0
42 37 1 0
42 37 34 0
42 1 34 0
37 1 34 0
